0 48 20 29 36 39 23 43 46 29 
44 0 21 47 46 43 6 6 38 1 
34 24 0 33 14 26 29 24 44 41 
33 42 21 0 7 33 1 46 35 22 
9 11 36 39 0 23 38 16 35 16 
24 41 20 16 36 0 1 32 43 23 
46 50 26 46 12 45 0 21 35 18 
37 29 22 34 39 10 44 0 43 34 
18 45 8 47 25 36 34 30 0 11 
6 20 41 22 1 13 12 24 12 0 
